0 99 25 28 27 26 67 68 69 32 35 31 34 30 70 37 33 36 18 17 20 19 56 57 41 40 39 38 43 42 55 54 53 52 66 82 79 23 83 24 97 21 22 1 80 81 95 96 16 12 15 14 48 13 98 29 3 45 46 44 49 50 47 89 84 6 10 9 5 8 4 11 7 86 88 87 2 61 64 60 63 65 58 62 59 92 91 90 75 74 73 72 78 77 76 94 93 51 85 71 0 